150 20
3
41 33 3 4 30 65 69 88 74 36 65 56 77 70 16 42 97 57 93 5 89 87 29 95 69 86 41 81 51 46 58 39 83 15 75 93 93 52 56 25 79 36 4 82 94 11 42 22 84 28 56 32 58 86 68 66 22 2 73 1 33 80 7 63 69 5 42 15 35 46 81 23 20 4 23 25 46 31 25 18 11 53 45 6 20 5 67 11 44 44 26 85 56 80 53 37 46 11 64 99 56 83 22 56 76 74 71 36 50 31 23 28 0 39 61 32 66 58 46 79 37 53 90 88 33 34 25 78 19 83 52 75 84 63 96 79 98 41 38 39 6 8 0 87 42 18 44 43 93 5
764 651 919 859 1063 1092 1132 697 760 689 494 769 1135 716 766 747 763 1078 817 798
0 28 0 0 0 90 0 0 0 0 0 0 0 0 0 0 0 0 0 0 0 0 0 0 0 0 0 0 0 0 0 0 0 0 0 0 0 0 0 0 0 0 0 0 0 0 0 0 43 0 0 0 0 0 0 0 0 0 51 0 86 0 0 0 0 82 0 0 16 0 0 0 0 0 0 0 0 0 32 1 0 88 22 0 0 21 0 67 0 0 0 11 11 0 76 0 45 0 0 0 0 0 0 0 0 0 0 0 0 0 0 0 0 21 0 0 0 0 0 0 13 0 0 0 0 0 0 0 0 0 0 0 0 0 0 0 0 0 74 32 0 0 0 0 72 0 0 0 0 96
0 0 0 0 0 0 0 0 0 0 0 0 0 0 0 0 0 0 0 0 0 0 0 3 0 0 0 0 0 0 96 58 0 0 0 0 96 0 0 0 0 0 0 0 0 9 0 0 0 0 0 0 0 37 0 0 95 0 0 0 0 0 0 39 0 0 38 0 0 0 0 0 0 0 0 0 30 0 0 59 0 0 0 0 0 0 0 72 0 0 32 0 0 0 0 0 0 0 0 0 0 0 0 0 0 0 0 99 0 0 0 0 0 0 0 0 0 0 0 0 0 0 0 0 0 0 0 0 57 0 0 0 0 0 0 0 0 0 0 0 0 0 0 0 0 0 0 0 0 98
0 0 96 0 0 0 32 0 0 0 0 32 0 0 0 0 0 0 30 0 49 0 0 0 0 0 18 46 44 0 0 0 0 0 0 0 0 0 82 0 0 84 0 0 54 0 0 0 0 0 0 0 76 0 0 0 0 0 0 23 88 0 0 0 0 0 0 0 0 0 0 0 0 0 0 0 52 0 0 14 0 61 0 0 0 0 2 0 1 0 0 0 0 0 0 0 0 42 0 3 0 0 0 0 0 0 0 0 0 0 0 91 0 0 0 0 0 0 0 1 0 0 56 0 0 38 0 0 76 0 0 0 0 0 0 0 0 0 0 0 0 0 0 0 0 0 0 0 84 15
0 0 0 66 0 0 0 17 0 79 0 0 17 0 0 0 0 86 0 0 0 29 0 0 0 0 0 0 0 0 0 0 0 0 0 0 0 0 0 0 4 0 11 0 76 0 0 0 51 0 0 0 0 0 0 0 0 0 0 0 0 0 0 0 0 6 0 0 0 12 0 74 0 0 0 0 42 0 0 0 0 0 0 0 0 0 0 0 14 0 85 0 0 0 20 0 0 0 0 35 0 0 0 0 0 92 0 0 0 0 0 0 0 0 56 0 0 0 0 0 0 0 0 0 0 0 66 0 0 0 0 0 27 97 0 0 0 0 97 0 0 0 63 0 0 0 0 0 0 0
0 0 0 0 0 0 0 38 0 0 0 0 0 0 0 0 64 0 0 0 0 0 0 0 0 0 22 0 70 0 0 96 0 0 0 50 0 0 0 0 0 0 0 0 62 0 0 68 69 0 0 0 0 0 0 0 0 0 0 0 0 0 0 0 54 0 93 0 0 0 0 90 0 0 42 0 0 0 0 0 0 0 0 0 0 0 0 0 0 0 0 77 46 0 0 0 0 0 0 0 0 0 0 0 0 0 0 9 0 0 0 33 71 0 0 0 0 0 0 0 0 0 0 40 0 45 94 0 0 0 0 0 0 0 0 0 0 0 0 0 94 0 0 0 95 0 0 56 0 0
0 31 0 0 0 87 0 61 0 0 0 3 0 0 0 0 0 0 0 0 47 0 0 16 0 90 0 87 57 0 0 0 0 0 0 0 0 0 0 0 0 0 0 0 0 98 0 0 0 0 0 47 0 0 0 0 0 0 0 0 0 0 0 0 0 0 0 81 0 0 0 70 42 5 20 0 0 0 0 0 0 0 0 0 0 0 0 73 0 0 0 0 78 0 0 0 0 0 0 0 0 39 0 0 0 0 17 0 0 0 58 0 0 56 0 0 0 0 2 0 90 0 26 26 0 0 7 0 99 0 0 0 0 0 0 70 0 0 0 0 0 0 0 0 0 0 0 0 84 0
0 0 0 0 45 0 0 0 0 0 0 0 0 59 0 0 0 0 0 0 0 0 0 0 0 45 0 0 99 0 97 42 0 0 0 76 0 0 0 0 68 0 0 0 83 0 0 0 0 0 0 0 90 0 0 0 0 0 0 0 0 0 0 0 0 32 0 0 5 0 0 0 0 0 88 0 0 0 0 0 0 0 0 96 93 52 0 0 0 0 94 0 0 0 0 0 0 0 0 0 0 0 0 0 0 0 0 0 0 61 0 0 0 0 0 0 0 0 0 84 0 0 60 0 22 14 0 0 32 0 0 0 0 77 0 0 0 0 0 0 93 0 0 0 0 0 0 0 0 0
0 0 0 0 0 0 0 0 0 0 0 0 0 0 0 0 92 0 0 0 0 0 0 0 0 0 0 0 0 0 0 0 0 18 78 0 35 0 0 0 0 0 0 0 0 53 0 0 0 0 0 0 0 64 0 44 0 0 0 80 0 0 0 0 0 0 35 0 0 0 0 0 0 0 0 0 18 0 0 0 0 49 0 20 0 0 0 0 0 0 0 0 0 0 50 0 68 0 0 0 0 0 0 0 0 0 24 0 0 0 0 0 1 73 0 0 76 0 0 0 0 0 0 0 0 0 0 3 0 49 0 0 0 0 0 0 0 0 0 79 0 0 0 0 0 0 0 0 0 0
0 0 0 0 0 0 0 0 0 0 0 0 0 0 0 0 0 0 0 0 0 0 0 0 0 0 0 0 0 0 0 0 81 73 0 0 60 0 0 0 0 0 18 0 0 34 2 0 0 0 0 0 0 0 11 0 0 0 0 0 0 0 0 0 86 0 0 0 0 0 0 0 0 0 0 0 0 0 0 0 0 0 0 0 0 0 0 0 0 0 0 0 0 0 49 0 0 0 13 0 0 0 0 0 0 0 0 10 0 0 0 0 0 0 98 0 0 0 0 0 52 0 0 81 94 0 0 0 0 60 0 92 0 0 0 0 0 0 0 25 86 0 0 0 0 0 0 0 0 0
0 0 0 0 0 83 27 0 0 0 0 0 79 26 0 0 0 0 0 0 0 0 0 63 21 0 0 0 0 0 16 0 0 0 0 0 0 0 0 0 0 0 0 8 34 0 0 25 0 1 0 0 89 0 0 0 0 0 0 0 0 0 0 0 0 0 0 0 0 0 0 0 21 26 0 0 0 0 0 0 0 0 0 0 3 0 0 0 0 0 0 0 43 0 0 0 0 55 0 0 0 0 0 0 0 0 0 0 0 39 0 0 0 0 0 0 0 0 0 0 0 0 0 0 0 0 0 69 0 0 0 0 0 46 0 0 29 0 0 0 0 86 0 0 0 0 0 76 0 0
0 0 0 37 0 0 0 1 0 0 0 0 0 0 34 0 0 0 0 0 71 0 8 0 0 0 0 0 0 0 0 0 0 0 74 0 0 0 49 0 0 0 31 0 0 54 0 0 0 0 0 0 0 0 0 22 0 69 0 0 0 0 0 0 0 0 0 32 0 0 0 0 0 0 0 0 12 0 0 33 0 55 0 0 0 0 0 0 0 0 0 29 0 0 7 0 0 0 0 0 0 0 0 0 0 0 0 0 0 0 41 30 0 0 0 0 0 0 0 0 0 0 0 0 0 0 0 0 0 0 0 0 0 0 2 0 0 0 5 0 0 0 0 0 0 0 0 0 0 0
0 0 0 0 0 0 0 0 0 0 0 0 0 0 0 0 0 0 0 62 0 48 36 0 0 0 0 0 0 0 46 0 0 0 16 0 0 0 0 0 60 0 0 63 0 0 0 0 91 0 0 34 0 0 0 17 0 0 0 37 0 0 33 0 0 99 0 0 0 0 76 28 0 0 0 0 0 0 38 0 0 0 0 0 0 0 0 0 2 0 0 0 0 30 0 0 0 0 0 0 0 0 0 0 6 0 0 0 78 0 0 0 18 0 0 88 0 0 0 0 0 0 0 0 0 0 0 0 0 0 0 35 0 0 0 0 0 0 0 40 0 0 0 0 0 0 0 0 0 0
0 0 0 0 0 29 0 91 0 0 0 81 60 69 0 72 0 0 0 0 0 0 0 0 0 0 78 0 0 0 0 0 79 0 0 0 60 0 0 0 0 7 0 0 0 0 0 0 0 0 0 0 64 0 0 0 0 0 0 17 0 0 0 0 0 46 23 0 0 0 0 0 0 25 55 0 0 0 87 0 91 64 0 0 87 0 0 45 0 0 0 0 0 0 0 0 0 0 0 0 37 0 82 16 54 0 0 0 5 0 0 0 0 0 0 0 0 0 0 0 0 73 0 0 42 0 0 0 0 20 0 0 0 0 0 0 0 0 0 0 0 82 0 0 67 0 0 0 0 0
0 0 0 0 0 0 0 34 0 0 40 0 75 0 0 75 21 0 55 0 82 0 0 0 0 0 0 0 0 0 0 89 0 0 0 0 0 84 0 0 0 0 0 12 0 0 0 0 0 0 0 74 0 0 0 0 0 0 0 0 0 0 0 0 0 0 0 0 0 96 0 0 0 0 1 0 0 0 0 0 0 0 0 0 56 0 0 0 0 0 0 0 0 0 0 0 0 0 0 0 0 73 0 0 0 0 0 0 0 0 0 0 0 0 0 0 0 0 0 0 57 0 0 0 0 0 80 0 0 0 0 0 0 0 22 0 0 0 0 0 0 0 37 0 0 0 0 1 0 0
0 0 0 0 0 0 0 0 27 0 0 0 0 0 0 0 3 0 0 0 0 0 2 0 0 0 0 0 0 0 0 0 0 0 0 48 82 0 0 68 39 0 0 0 0 0 0 0 0 0 0 0 0 0 0 0 0 99 77 0 38 0 0 0 0 0 0 0 0 0 0 23 0 42 0 0 0 0 0 46 0 0 0 0 39 0 0 0 46 0 0 73 0 71 0 12 0 0 0 0 0 0 0 0 0 0 0 0 0 0 52 0 25 0 0 0 0 0 0 0 0 0 0 0 0 0 0 0 65 0 0 13 0 27 0 17 0 32 0 0 0 0 0 0 0 0 0 0 0 63
12 0 0 0 0 0 0 22 0 0 0 75 0 0 0 0 0 0 0 0 0 0 0 19 0 13 0 0 0 0 0 0 0 0 2 3 0 0 0 0 0 55 0 0 0 65 0 0 0 0 0 0 0 38 7 0 0 15 77 0 0 97 0 32 72 0 0 0 0 0 0 0 48 0 52 0 0 0 0 0 0 15 0 0 0 0 0 0 0 29 0 0 0 0 0 0 0 0 0 0 0 0 43 0 0 0 0 0 0 0 0 0 0 0 0 0 51 0 0 0 0 0 0 0 0 0 0 0 0 0 0 0 0 64 0 0 0 0 0 0 0 42 0 0 68 0 0 80 0 0
0 13 0 0 75 0 0 0 0 0 0 0 0 0 33 70 0 19 15 0 0 0 0 0 0 0 0 0 0 0 0 0 24 0 22 0 0 0 0 0 0 0 45 0 0 0 0 62 0 0 0 0 0 39 10 0 0 0 0 0 0 0 0 0 0 0 0 0 0 0 0 0 0 0 0 0 0 0 0 0 45 0 0 0 0 0 0 0 0 0 0 0 0 92 0 0 0 0 0 35 0 0 0 0 0 0 0 0 24 0 85 0 0 0 0 0 0 0 27 0 0 0 0 0 0 17 59 90 0 0 0 0 0 0 0 70 0 0 0 0 0 90 0 0 0 0 0 0 0 0
0 0 0 48 0 0 0 0 0 44 0 0 0 0 0 81 36 48 0 0 48 0 0 0 16 0 0 0 0 0 94 31 68 38 0 69 0 0 0 0 0 17 0 0 0 0 0 0 0 0 0 0 0 0 0 0 74 0 0 0 0 0 0 71 0 0 49 0 0 0 0 0 0 0 0 0 0 0 0 0 0 0 0 0 0 83 0 0 0 0 0 0 0 0 0 0 0 0 0 0 0 0 0 0 0 0 0 0 0 64 0 0 94 59 0 0 0 0 0 0 0 0 0 0 0 0 42 0 0 0 25 0 0 0 0 0 89 0 0 90 0 0 0 55 88 0 1 0 0 0
0 0 0 0 0 0 0 0 0 0 0 0 0 0 0 0 0 0 65 0 0 0 0 0 0 0 0 0 0 0 0 0 0 0 0 0 0 0 0 0 2 0 0 4 0 0 0 0 0 0 27 0 0 0 0 0 0 0 0 0 0 0 69 38 0 0 0 0 0 0 0 0 0 84 0 0 35 0 0 0 0 48 0 0 0 0 51 0 0 92 0 53 0 0 0 0 0 0 0 0 0 0 0 0 0 0 0 0 44 0 79 0 33 54 0 0 0 0 0 0 0 0 0 0 42 44 0 0 0 0 0 64 73 95 0 0 0 0 0 0 0 0 0 0 0 0 0 42 0 0
0 0 0 0 0 0 0 0 0 0 0 0 0 0 0 85 0 0 53 0 0 0 0 0 0 47 73 0 0 0 0 0 0 0 0 0 0 0 0 0 0 0 0 47 0 0 41 0 0 39 5 0 0 0 93 0 0 0 0 0 0 0 0 0 0 0 0 0 0 0 0 0 0 0 0 0 0 0 0 0 38 0 0 24 0 0 0 0 0 93 0 0 0 73 0 0 96 0 55 0 0 0 0 0 0 0 0 0 0 0 89 0 0 0 0 0 0 0 0 0 0 0 0 0 12 0 0 49 0 53 0 0 0 0 0 0 0 0 0 20 0 0 0 0 0 3 0 28 0 0
0 1 0 0 0 28 0 0 0 0 0 0 0 0 0 0 0 0 0 0 0 0 0 0 0 0 0 0 0 0 0 0 0 0 0 0 0 0 0 0 0 0 0 0 0 0 0 0 6 0 0 0 0 0 0 0 0 0 44 0 67 0 0 0 0 32 0 0 13 0 0 0 0 0 0 0 0 0 5 0 0 12 15 0 0 10 0 16 0 0 0 7 7 0 15 0 11 0 0 0 0 0 0 0 0 0 0 0 0 0 0 0 0 4 0 0 0 0 0 0 9 0 0 0 0 0 0 0 0 0 0 0 0 0 0 0 0 0 71 30 0 0 0 0 24 0 0 0 0 80
0 0 0 0 0 0 0 0 0 0 0 0 0 0 0 0 0 0 0 0 0 0 0 1 0 0 0 0 0 0 63 17 0 0 0 0 49 0 0 0 0 0 0 0 0 8 0 0 0 0 0 0 0 11 0 0 0 0 0 0 0 0 0 23 0 0 17 0 0 0 0 0 0 0 0 0 26 0 0 12 0 0 0 0 0 0 0 56 0 0 17 0 0 0 0 0 0 0 0 0 0 0 0 0 0 0 0 28 0 0 0 0 0 0 0 0 0 0 0 0 0 0 0 0 0 0 0 0 51 0 0 0 0 0 0 0 0 0 0 0 0 0 0 0 0 0 0 0 0 35
0 0 80 0 0 0 8 0 0 0 0 16 0 0 0 0 0 0 6 0 21 0 0 0 0 0 2 45 42 0 0 0 0 0 0 0 0 0 25 0 0 35 0 0 42 0 0 0 0 0 0 0 75 0 0 0 0 0 0 20 53 0 0 0 0 0 0 0 0 0 0 0 0 0 0 0 23 0 0 10 0 2 0 0 0 0 1 0 0 0 0 0 0 0 0 0 0 36 0 0 0 0 0 0 0 0 0 0 0 0 0 47 0 0 0 0 0 0 0 0 0 0 5 0 0 34 0 0 61 0 0 0 0 0 0 0 0 0 0 0 0 0 0 0 0 0 0 0 32 2
0 0 0 12 0 0 0 9 0 57 0 0 6 0 0 0 0 2 0 0 0 2 0 0 0 0 0 0 0 0 0 0 0 0 0 0 0 0 0 0 2 0 0 0 66 0 0 0 23 0 0 0 0 0 0 0 0 0 0 0 0 0 0 0 0 5 0 0 0 4 0 26 0 0 0 0 39 0 0 0 0 0 0 0 0 0 0 0 10 0 58 0 0 0 13 0 0 0 0 18 0 0 0 0 0 84 0 0 0 0 0 0 0 0 52 0 0 0 0 0 0 0 0 0 0 0 13 0 0 0 0 0 9 25 0 0 0 0 47 0 0 0 0 0 0 0 0 0 0 0
0 0 0 0 0 0 0 24 0 0 0 0 0 0 0 0 39 0 0 0 0 0 0 0 0 0 21 0 21 0 0 45 0 0 0 44 0 0 0 0 0 0 0 0 24 0 0 67 35 0 0 0 0 0 0 0 0 0 0 0 0 0 0 0 46 0 34 0 0 0 0 24 0 0 23 0 0 0 0 0 0 0 0 0 0 0 0 0 0 0 0 73 20 0 0 0 0 0 0 0 0 0 0 0 0 0 0 8 0 0 0 15 41 0 0 0 0 0 0 0 0 0 0 27 0 32 82 0 0 0 0 0 0 0 0 0 0 0 0 0 89 0 0 0 71 0 0 9 0 0
0 0 0 0 0 60 0 25 0 0 0 0 0 0 0 0 0 0 0 0 22 0 0 6 0 34 0 55 7 0 0 0 0 0 0 0 0 0 0 0 0 0 0 0 0 37 0 0 0 0 0 34 0 0 0 0 0 0 0 0 0 0 0 0 0 0 0 0 0 0 0 63 0 3 14 0 0 0 0 0 0 0 0 0 0 0 0 22 0 0 0 0 26 0 0 0 0 0 0 0 0 15 0 0 0 0 12 0 0 0 28 0 0 26 0 0 0 0 1 0 88 0 0 11 0 0 1 0 98 0 0 0 0 0 0 52 0 0 0 0 0 0 0 0 0 0 0 0 60 0
0 0 0 0 13 0 0 0 0 0 0 0 0 5 0 0 0 0 0 0 0 0 0 0 0 37 0 0 64 0 10 33 0 0 0 1 0 0 0 0 56 0 0 0 72 0 0 0 0 0 0 0 56 0 0 0 0 0 0 0 0 0 0 0 0 31 0 0 0 0 0 0 0 0 74 0 0 0 0 0 0 0 0 92 14 14 0 0 0 0 49 0 0 0 0 0 0 0 0 0 0 0 0 0 0 0 0 0 0 24 0 0 0 0 0 0 0 0 0 45 0 0 42 0 19 13 0 0 7 0 0 0 0 58 0 0 0 0 0 0 62 0 0 0 0 0 0 0 0 0
0 0 0 0 0 0 0 0 0 0 0 0 0 0 0 0 42 0 0 0 0 0 0 0 0 0 0 0 0 0 0 0 0 11 12 0 28 0 0 0 0 0 0 0 0 37 0 0 0 0 0 0 0 45 0 30 0 0 0 22 0 0 0 0 0 0 12 0 0 0 0 0 0 0 0 0 6 0 0 0 0 22 0 11 0 0 0 0 0 0 0 0 0 0 19 0 50 0 0 0 0 0 0 0 0 0 10 0 0 0 0 0 0 40 0 0 59 0 0 0 0 0 0 0 0 0 0 2 0 2 0 0 0 0 0 0 0 0 0 8 0 0 0 0 0 0 0 0 0 0
0 0 0 0 0 0 0 0 0 0 0 0 0 0 0 0 0 0 0 0 0 0 0 0 0 0 0 0 0 0 0 0 75 71 0 0 36 0 0 0 0 0 10 0 0 8 1 0 0 0 0 0 0 0 3 0 0 0 0 0 0 0 0 0 61 0 0 0 0 0 0 0 0 0 0 0 0 0 0 0 0 0 0 0 0 0 0 0 0 0 0 0 0 0 27 0 0 0 5 0 0 0 0 0 0 0 0 0 0 0 0 0 0 0 36 0 0 0 0 0 18 0 0 67 6 0 0 0 0 38 0 18 0 0 0 0 0 0 0 7 53 0 0 0 0 0 0 0 0 0
0 0 0 0 0 15 12 0 0 0 0 0 52 14 0 0 0 0 0 0 0 0 0 33 18 0 0 0 0 0 10 0 0 0 0 0 0 0 0 0 0 0 0 5 3 0 0 24 0 0 0 0 43 0 0 0 0 0 0 0 0 0 0 0 0 0 0 0 0 0 0 0 1 5 0 0 0 0 0 0 0 0 0 0 2 0 0 0 0 0 0 0 6 0 0 0 0 18 0 0 0 0 0 0 0 0 0 0 0 34 0 0 0 0 0 0 0 0 0 0 0 0 0 0 0 0 0 31 0 0 0 0 0 32 0 0 8 0 0 0 0 80 0 0 0 0 0 43 0 0
0 0 0 36 0 0 0 0 0 0 0 0 0 0 18 0 0 0 0 0 8 0 2 0 0 0 0 0 0 0 0 0 0 0 19 0 0 0 30 0 0 0 11 0 0 25 0 0 0 0 0 0 0 0 0 3 0 62 0 0 0 0 0 0 0 0 0 25 0 0 0 0 0 0 0 0 8 0 0 12 0 12 0 0 0 0 0 0 0 0 0 10 0 0 6 0 0 0 0 0 0 0 0 0 0 0 0 0 0 0 14 27 0 0 0 0 0 0 0 0 0 0 0 0 0 0 0 0 0 0 0 0 0 0 1 0 0 0 3 0 0 0 0 0 0 0 0 0 0 0
0 0 0 0 0 0 0 0 0 0 0 0 0 0 0 0 0 0 0 9 0 47 22 0 0 0 0 0 0 0 37 0 0 0 4 0 0 0 0 0 10 0 0 39 0 0 0 0 50 0 0 13 0 0 0 13 0 0 0 34 0 0 7 0 0 71 0 0 0 0 1 6 0 0 0 0 0 0 3 0 0 0 0 0 0 0 0 0 0 0 0 0 0 29 0 0 0 0 0 0 0 0 0 0 3 0 0 0 8 0 0 0 4 0 0 84 0 0 0 0 0 0 0 0 0 0 0 0 0 0 0 17 0 0 0 0 0 0 0 14 0 0 0 0 0 0 0 0 0 0
0 0 0 0 0 15 0 48 0 0 0 43 43 57 0 67 0 0 0 0 0 0 0 0 0 0 46 0 0 0 0 0 50 0 0 0 2 0 0 0 0 0 0 0 0 0 0 0 0 0 0 0 17 0 0 0 0 0 0 13 0 0 0 0 0 1 16 0 0 0 0 0 0 0 19 0 0 0 58 0 20 32 0 0 43 0 0 20 0 0 0 0 0 0 0 0 0 0 0 0 11 0 46 5 24 0 0 0 0 0 0 0 0 0 0 0 0 0 0 0 0 6 0 0 30 0 0 0 0 1 0 0 0 0 0 0 0 0 0 0 0 65 0 0 21 0 0 0 0 0
0 0 0 0 0 0 0 25 0 0 0 0 67 0 0 15 6 0 3 0 47 0 0 0 0 0 0 0 0 0 0 42 0 0 0 0 0 1 0 0 0 0 0 1 0 0 0 0 0 0 0 47 0 0 0 0 0 0 0 0 0 0 0 0 0 0 0 0 0 16 0 0 0 0 0 0 0 0 0 0 0 0 0 0 4 0 0 0 0 0 0 0 0 0 0 0 0 0 0 0 0 21 0 0 0 0 0 0 0 0 0 0 0 0 0 0 0 0 0 0 29 0 0 0 0 0 44 0 0 0 0 0 0 0 0 0 0 0 0 0 0 0 2 0 0 0 0 0 0 0
0 0 0 0 0 0 0 0 2 0 0 0 0 0 0 0 0 0 0 0 0 0 1 0 0 0 0 0 0 0 0 0 0 0 0 22 77 0 0 38 10 0 0 0 0 0 0 0 0 0 0 0 0 0 0 0 0 21 16 0 14 0 0 0 0 0 0 0 0 0 0 7 0 3 0 0 0 0 0 13 0 0 0 0 12 0 0 0 22 0 0 28 0 13 0 6 0 0 0 0 0 0 0 0 0 0 0 0 0 0 48 0 18 0 0 0 0 0 0 0 0 0 0 0 0 0 0 0 45 0 0 10 0 19 0 6 0 25 0 0 0 0 0 0 0 0 0 0 0 40
7 0 0 0 0 0 0 18 0 0 0 4 0 0 0 0 0 0 0 0 0 0 0 4 0 12 0 0 0 0 0 0 0 0 1 2 0 0 0 0 0 51 0 0 0 2 0 0 0 0 0 0 0 18 6 0 0 11 18 0 0 86 0 29 35 0 0 0 0 0 0 0 11 0 12 0 0 0 0 0 0 5 0 0 0 0 0 0 0 14 0 0 0 0 0 0 0 0 0 0 0 0 5 0 0 0 0 0 0 0 0 0 0 0 0 0 24 0 0 0 0 0 0 0 0 0 0 0 0 0 0 0 0 5 0 0 0 0 0 0 0 29 0 0 24 0 0 42 0 0
0 10 0 0 65 0 0 0 0 0 0 0 0 0 21 53 0 5 4 0 0 0 0 0 0 0 0 0 0 0 0 0 13 0 11 0 0 0 0 0 0 0 26 0 0 0 0 6 0 0 0 0 0 31 6 0 0 0 0 0 0 0 0 0 0 0 0 0 0 0 0 0 0 0 0 0 0 0 0 0 19 0 0 0 0 0 0 0 0 0 0 0 0 49 0 0 0 0 0 1 0 0 0 0 0 0 0 0 19 0 54 0 0 0 0 0 0 0 0 0 0 0 0 0 0 5 12 70 0 0 0 0 0 0 0 20 0 0 0 0 0 54 0 0 0 0 0 0 0 0
0 0 0 15 0 0 0 0 0 29 0 0 0 0 0 70 14 42 0 0 13 0 0 0 12 0 0 0 0 0 81 10 47 11 0 62 0 0 0 0 0 10 0 0 0 0 0 0 0 0 0 0 0 0 0 0 72 0 0 0 0 0 0 42 0 0 44 0 0 0 0 0 0 0 0 0 0 0 0 0 0 0 0 0 0 44 0 0 0 0 0 0 0 0 0 0 0 0 0 0 0 0 0 0 0 0 0 0 0 53 0 0 32 28 0 0 0 0 0 0 0 0 0 0 0 0 5 0 0 0 20 0 0 0 0 0 61 0 0 7 0 0 0 36 51 0 0 0 0 0
0 0 0 0 0 0 0 0 0 0 0 0 0 0 0 0 0 0 50 0 0 0 0 0 0 0 0 0 0 0 0 0 0 0 0 0 0 0 0 0 1 0 0 0 0 0 0 0 0 0 19 0 0 0 0 0 0 0 0 0 0 0 21 9 0 0 0 0 0 0 0 0 0 77 0 0 11 0 0 0 0 37 0 0 0 0 3 0 0 35 0 50 0 0 0 0 0 0 0 0 0 0 0 0 0 0 0 0 37 0 41 0 9 15 0 0 0 0 0 0 0 0 0 0 29 40 0 0 0 0 0 55 29 52 0 0 0 0 0 0 0 0 0 0 0 0 0 25 0 0
0 0 0 0 0 0 0 0 0 0 0 0 0 0 0 37 0 0 43 0 0 0 0 0 0 15 22 0 0 0 0 0 0 0 0 0 0 0 0 0 0 0 0 27 0 0 36 0 0 2 3 0 0 0 58 0 0 0 0 0 0 0 0 0 0 0 0 0 0 0 0 0 0 0 0 0 0 0 0 0 31 0 0 8 0 0 0 0 0 72 0 0 0 16 0 0 85 0 10 0 0 0 0 0 0 0 0 0 0 0 32 0 0 0 0 0 0 0 0 0 0 0 0 0 6 0 0 9 0 37 0 0 0 0 0 0 0 0 0 2 0 0 0 0 0 1 0 13 0 0
